language Essence 1.3

letting bot_end be [82, 66, 36, 63, 126, 38, 149, 27, 46, 134, 108, 127, 20, 48, 21, 11; int(1..16)]
letting bot_start be [39, 97, 72, 22, 126, 90, 45, 103, 74, 6, 91, 136, 125, 134, 86, 57; int(1..16)]
letting bots be 16
letting buffer_col be 2
letting buffer_row be 2
letting corridor_size be 1
letting n_shelves_col be 7
letting n_shelves_row be 1
letting shelf_col_size be 2
letting shelf_row_size be 1
